NAME:9_HardATSPLIB_9
TYPE: ATSP
DIMENSION: 9
EDGE_WEIGHT_TYPE: EXPLICIT
EDGE_WEIGHT_FORMAT: FULL_MATRIX
EDGE_WEIGHT_SECTION
0	23	38	29	18	23	18	10	0
7	0	20	6	0	20	15	17	7
7	0	0	6	0	20	15	17	7
1	14	14	0	14	14	14	11	1
22	15	35	21	0	30	15	17	17
0	15	15	21	0	0	0	2	0
12	15	27	21	0	30	0	2	2
10	13	33	19	13	33	23	0	0
10	23	43	29	23	33	23	10	0
